
  32    1
  10

   0   0   5 2 3 4 5 7 
   7   1   3 10 9 8 
   7   3   3 11 10 9 
   9   3   2 10 8 
   8   2   2 10 6 
   7   6   3 15 13 11 
   1   3   3 15 13 11 
   5   2   3 14 12 11 
   7   2   3 19 13 12 
   7   8   3 18 17 15 
   6   3   3 19 18 17 
   9   3   3 18 17 16 
   1   5   2 16 14 
   3   3   4 25 23 21 20 
   5   5   1 16 
   4   2   3 25 21 20 
   9   4   3 25 23 20 
   5   5   3 25 23 20 
   5   3   3 25 21 20 
   9   3   4 31 26 24 22 
   3   8   3 31 26 22 
  10   3   4 30 29 28 27 
   7   4   4 31 29 28 27 
   8   4   3 30 29 27 
   8   3   2 28 27 
   2   7   1 27 
   1   3   1 32
   8   6   1 32
  10   6   1 32
   8   6   1 32
   4   4   1 32
   0   0   0 
